(set-info :smt-lib-version 2.5)
(set-info :license |https://www.gnu.org/licenses/gpl-3.0.html|)
(set-logic AUFBVDTLIRA)
(set-info :source |Benchmarks generated by Florian Schanda from the public SPARK 2014 testsuite and post-processed with a script to set more precise logics.|)
(set-info :category industrial)
(set-info :status unknown)

(declare-datatypes () ((tuple0 (Tuple0))))
(declare-sort us_private 0)
(declare-fun private__bool_eq (us_private us_private) Bool)
(declare-const us_null_ext__ us_private)
(declare-sort us_type_of_heap 0)
(declare-datatypes () ((us_type_of_heap__ref (mk___type_of_heap__ref (us_type_of_heap__content us_type_of_heap)))))
(declare-sort us_image 0)
(declare-datatypes () ((int__ref (mk_int__ref (int__content Int)))))
(declare-datatypes () ((bool__ref (mk_bool__ref (bool__content Bool)))))
(declare-datatypes () ((real__ref (mk_real__ref (real__content Real)))))
(declare-datatypes () ((us_private__ref (mk___private__ref (us_private__content us_private)))))
(define-fun int__ref___projection ((a int__ref)) Int (int__content a))
(define-fun bool__ref___projection ((a bool__ref)) Bool (bool__content a))
(define-fun real__ref___projection ((a real__ref)) Real (real__content a))
(define-fun us_private__ref___projection ((a us_private__ref)) us_private (us_private__content a))
(declare-fun nth ((_ BitVec 8) Int) Bool)
(declare-fun lsr ((_ BitVec 8) Int) (_ BitVec 8))
(declare-fun asr ((_ BitVec 8) Int) (_ BitVec 8))
(declare-fun lsl ((_ BitVec 8) Int) (_ BitVec 8))
(declare-fun rotate_right1 ((_ BitVec 8) Int) (_ BitVec 8))
(declare-fun rotate_left1 ((_ BitVec 8) Int) (_ BitVec 8))
(declare-fun pow2 (Int) Int)
(define-fun to_int1 ((x (_ BitVec 8))) Int (ite (bvsge x (_ bv0 8)) (bv2nat x) (- (- 256 (bv2nat x)))))
(define-fun uint_in_range ((i Int)) Bool (and (<= 0 i) (<= i 255)))
(assert (forall ((x (_ BitVec 8)) (n (_ BitVec 8))) (= (bvlshr x n) (lsr x (bv2nat n)))))
(assert (forall ((x (_ BitVec 8)) (n (_ BitVec 8))) (= (bvashr x n) (asr x (bv2nat n)))))
(assert (forall ((x (_ BitVec 8)) (n (_ BitVec 8))) (= (bvshl x n) (lsl x (bv2nat n)))))
(assert (forall ((v (_ BitVec 8)) (n (_ BitVec 8))) (= (bvor (bvshl v (bvurem n (_ bv8 8))) (bvlshr v (bvsub (_ bv8 8) (bvurem n (_ bv8 8))))) (rotate_left1 v (bv2nat n)))))
(assert (forall ((v (_ BitVec 8)) (n (_ BitVec 8))) (= (bvor (bvlshr v (bvurem n (_ bv8 8))) (bvshl v (bvsub (_ bv8 8) (bvurem n (_ bv8 8))))) (rotate_right1 v (bv2nat n)))))
(declare-fun nth_bv ((_ BitVec 8) (_ BitVec 8)) Bool)
(assert (forall ((x (_ BitVec 8)) (i (_ BitVec 8))) (= (= (nth_bv x i) true) (not (= (bvand (bvlshr x i) #x01) #x00)))))
(assert (forall ((x (_ BitVec 8)) (i (_ BitVec 8))) (= (nth x (bv2nat i)) (nth_bv x i))))
(assert (forall ((x (_ BitVec 8)) (i Int)) (=> (and (<= 0 i) (< i 256)) (= (nth_bv x ((_ int2bv 8) i)) (nth x i)))))
(declare-fun eq_sub_bv ((_ BitVec 8) (_ BitVec 8) (_ BitVec 8) (_ BitVec 8)) Bool)
(assert (forall ((a (_ BitVec 8)) (b (_ BitVec 8)) (i (_ BitVec 8)) (n (_ BitVec 8))) (let ((mask (bvshl (bvsub (bvshl #x01 n) #x01) i))) (= (eq_sub_bv a b i n) (= (bvand b mask) (bvand a mask))))))
(define-fun eq_sub ((a (_ BitVec 8)) (b (_ BitVec 8)) (i Int) (n Int)) Bool (forall ((j Int)) (=> (and (<= i j) (< j (+ i n))) (= (nth a j) (nth b j)))))
(assert (forall ((a (_ BitVec 8)) (b (_ BitVec 8)) (i (_ BitVec 8)) (n (_ BitVec 8))) (= (eq_sub a b (bv2nat i) (bv2nat n)) (eq_sub_bv a b i n))))
(declare-datatypes () ((t__ref (mk_t__ref (t__content (_ BitVec 8))))))
(declare-fun power ((_ BitVec 8) Int) (_ BitVec 8))
(define-fun bv_min ((x (_ BitVec 8)) (y (_ BitVec 8))) (_ BitVec 8) (ite (bvule x y) x y))
(define-fun bv_max ((x (_ BitVec 8)) (y (_ BitVec 8))) (_ BitVec 8) (ite (bvule x y) y x))
(define-fun in_range ((x Int)) Bool (or (= x 0) (= x 1)))
(declare-fun attr__ATTRIBUTE_IMAGE (Bool) us_image)
(declare-fun attr__ATTRIBUTE_VALUE__pre_check (us_image) Bool)
(declare-fun attr__ATTRIBUTE_VALUE (us_image) Bool)
(declare-sort integer 0)
(declare-fun integerqtint (integer) Int)
(assert (forall ((i integer)) (and (<= (- 2147483648) (integerqtint i)) (<= (integerqtint i) 2147483647))))
(define-fun in_range1 ((x Int)) Bool (and (<= (- 2147483648) x) (<= x 2147483647)))
(declare-fun attr__ATTRIBUTE_IMAGE1 (Int) us_image)
(declare-fun attr__ATTRIBUTE_VALUE__pre_check1 (us_image) Bool)
(declare-fun attr__ATTRIBUTE_VALUE1 (us_image) Int)
(declare-fun user_eq (integer integer) Bool)
(declare-const dummy integer)
(declare-datatypes () ((integer__ref (mk_integer__ref (integer__content integer)))))
(define-fun integer__ref___projection ((a integer__ref)) integer (integer__content a))
(declare-sort positive 0)
(declare-fun positiveqtint (positive) Int)
(assert (forall ((i positive)) (and (<= 1 (positiveqtint i)) (<= (positiveqtint i) 2147483647))))
(define-fun in_range2 ((x Int)) Bool (and (<= 1 x) (<= x 2147483647)))
(declare-fun attr__ATTRIBUTE_IMAGE2 (Int) us_image)
(declare-fun attr__ATTRIBUTE_VALUE__pre_check2 (us_image) Bool)
(declare-fun attr__ATTRIBUTE_VALUE2 (us_image) Int)
(declare-fun user_eq1 (positive positive) Bool)
(declare-const dummy1 positive)
(declare-datatypes () ((positive__ref (mk_positive__ref (positive__content positive)))))
(define-fun positive__ref___projection ((a positive__ref)) positive (positive__content a))
(declare-sort character 0)
(define-fun in_range3 ((x Int)) Bool (and (<= 0 x) (<= x 255)))
(declare-fun attr__ATTRIBUTE_IMAGE3 (Int) us_image)
(declare-fun attr__ATTRIBUTE_VALUE__pre_check3 (us_image) Bool)
(declare-fun attr__ATTRIBUTE_VALUE3 (us_image) Int)
(declare-fun user_eq2 (character character) Bool)
(declare-const dummy2 character)
(declare-datatypes () ((character__ref (mk_character__ref (character__content character)))))
(define-fun character__ref___projection ((a character__ref)) character (character__content a))
(declare-fun to_rep (character) Int)
(declare-fun of_rep (Int) character)
(assert (forall ((x character)) (! (= (of_rep (to_rep x)) x) :pattern ((to_rep x)))))
(assert (forall ((x character)) (! (in_range3 (to_rep x)) :pattern ((to_rep x)))))
(assert (forall ((x Int)) (! (=> (in_range3 x) (= (to_rep (of_rep x)) x)) :pattern ((to_rep (of_rep x))))))
(declare-datatypes () ((map__ref (mk_map__ref (map__content (Array Int character))))))
(declare-fun slide ((Array Int character) Int Int) (Array Int character))
(assert (forall ((a (Array Int character))) (forall ((first Int)) (! (= (slide a first first) a) :pattern ((slide a first first))))))
(assert (forall ((a (Array Int character))) (forall ((old_first Int)) (forall ((new_first Int)) (forall ((i Int)) (! (= (select (slide a old_first new_first) i) (select a (- i (- new_first old_first)))) :pattern ((select (slide a old_first new_first) i))))))))
(define-fun bool_eq ((a (Array Int character)) (a__first Int) (a__last Int) (b (Array Int character)) (b__first Int) (b__last Int)) Bool (ite (and (ite (<= a__first a__last) (and (<= b__first b__last) (= (- a__last a__first) (- b__last b__first))) (< b__last b__first)) (forall ((temp___idx_91 Int)) (=> (and (<= a__first temp___idx_91) (<= temp___idx_91 a__last)) (= (to_rep (select a temp___idx_91)) (to_rep (select b (+ (- b__first a__first) temp___idx_91))))))) true false))
(assert (forall ((a (Array Int character)) (b (Array Int character))) (forall ((a__first Int) (a__last Int) (b__first Int) (b__last Int)) (=> (= (bool_eq b b__first b__last a a__first a__last) true) (and (ite (<= a__first a__last) (and (<= b__first b__last) (= (- a__last a__first) (- b__last b__first))) (< b__last b__first)) (forall ((temp___idx_91 Int)) (=> (and (<= a__first temp___idx_91) (<= temp___idx_91 a__last)) (= (to_rep (select a temp___idx_91)) (to_rep (select b (+ (- b__first a__first) temp___idx_91)))))))))))
(define-fun to_rep1 ((x integer)) Int (integerqtint x))
(declare-fun of_rep1 (Int) integer)
(assert (forall ((x integer)) (! (= (of_rep1 (to_rep1 x)) x) :pattern ((to_rep1 x)))))
(assert (forall ((x integer)) (! (in_range1 (to_rep1 x)) :pattern ((to_rep1 x)))))
(assert (forall ((x Int)) (! (=> (in_range1 x) (= (to_rep1 (of_rep1 x)) x)) :pattern ((to_rep1 (of_rep1 x))))))
(declare-sort t 0)
(declare-fun first (t) integer)
(declare-fun last (t) integer)
(declare-fun mk (Int Int) t)
(assert (forall ((f Int) (l Int)) (! (=> (in_range1 f) (=> (in_range1 l) (and (= (to_rep1 (first (mk f l))) f) (= (to_rep1 (last (mk f l))) l)))) :pattern ((mk f l)))))
(define-fun dynamic_property ((range_first Int) (range_last Int) (low Int) (high Int)) Bool (and (in_range1 low) (and (in_range1 high) (=> (<= low high) (and (in_range2 low) (in_range2 high))))))
(declare-datatypes () ((us_t (mk___t (elts (Array Int character)) (rt t)))))
(define-fun to_array ((a us_t)) (Array Int character) (elts a))
(define-fun of_array ((a (Array Int character)) (f Int) (l Int)) us_t (mk___t a (mk f l)))
(define-fun first1 ((a us_t)) Int (to_rep1 (first (rt a))))
(define-fun last1 ((a us_t)) Int (to_rep1 (last (rt a))))
(define-fun length ((a us_t)) Int (ite (<= (first1 a) (last1 a)) (+ (- (last1 a) (first1 a)) 1) 0))
(declare-const value__size Int)
(declare-fun object__size ((Array Int character)) Int)
(declare-const value__component__size Int)
(declare-fun object__component__size ((Array Int character)) Int)
(declare-const value__alignment Int)
(declare-fun object__alignment ((Array Int character)) Int)
(assert (<= 0 value__size))
(assert (forall ((a (Array Int character))) (<= 0 (object__size a))))
(assert (<= 0 value__component__size))
(assert (forall ((a (Array Int character))) (<= 0 (object__component__size a))))
(assert (<= 0 value__alignment))
(assert (forall ((a (Array Int character))) (<= 0 (object__alignment a))))
(define-fun bool_eq1 ((x us_t) (y us_t)) Bool (bool_eq (elts x) (to_rep1 (first (rt x))) (to_rep1 (last (rt x))) (elts y) (to_rep1 (first (rt y))) (to_rep1 (last (rt y)))))
(declare-fun user_eq3 (us_t us_t) Bool)
(declare-const dummy3 us_t)
(declare-fun to_string (us_image) us_t)
(declare-fun from_string (us_t) us_image)
(declare-datatypes () ((string__ref (mk_string__ref (string__content us_t)))))
(define-fun string__ref___projection ((a string__ref)) us_t (string__content a))
(declare-sort natural 0)
(declare-fun naturalqtint (natural) Int)
(assert (forall ((i natural)) (and (<= 0 (naturalqtint i)) (<= (naturalqtint i) 2147483647))))
(define-fun in_range4 ((x Int)) Bool (and (<= 0 x) (<= x 2147483647)))
(declare-fun attr__ATTRIBUTE_IMAGE4 (Int) us_image)
(declare-fun attr__ATTRIBUTE_VALUE__pre_check4 (us_image) Bool)
(declare-fun attr__ATTRIBUTE_VALUE4 (us_image) Int)
(declare-fun user_eq4 (natural natural) Bool)
(declare-const dummy4 natural)
(declare-datatypes () ((natural__ref (mk_natural__ref (natural__content natural)))))
(define-fun natural__ref___projection ((a natural__ref)) natural (natural__content a))
(define-fun dynamic_invariant ((temp___expr_39 Int) (temp___is_init_35 Bool) (temp___skip_constant_36 Bool) (temp___do_toplevel_37 Bool) (temp___do_typ_inv_38 Bool)) Bool (=> (or (= temp___is_init_35 true) (<= 0 2147483647)) (in_range4 temp___expr_39)))
(define-fun dynamic_invariant1 ((temp___expr_96 us_t) (temp___is_init_92 Bool) (temp___skip_constant_93 Bool) (temp___do_toplevel_94 Bool) (temp___do_typ_inv_95 Bool)) Bool (=> (not (= temp___skip_constant_93 true)) (dynamic_property 1 2147483647 (first1 temp___expr_96) (last1 temp___expr_96))))
(declare-sort octet 0)
(declare-const attr__ATTRIBUTE_MODULUS (_ BitVec 8))
(declare-fun attr__ATTRIBUTE_IMAGE5 ((_ BitVec 8)) us_image)
(declare-fun attr__ATTRIBUTE_VALUE__pre_check5 (us_image) Bool)
(declare-fun attr__ATTRIBUTE_VALUE5 (us_image) (_ BitVec 8))
(declare-fun user_eq5 (octet octet) Bool)
(declare-const dummy5 octet)
(declare-datatypes () ((octet__ref (mk_octet__ref (octet__content octet)))))
(define-fun octet__ref___projection ((a octet__ref)) octet (octet__content a))
(declare-fun to_rep2 (octet) (_ BitVec 8))
(declare-fun of_rep2 ((_ BitVec 8)) octet)
(assert (forall ((x octet)) (! (= (of_rep2 (to_rep2 x)) x) :pattern ((to_rep2 x)))))
(assert true)
(assert (forall ((x (_ BitVec 8))) (! (= (to_rep2 (of_rep2 x)) x) :pattern ((to_rep2 (of_rep2 x))))))
(define-fun to_int2 ((x octet)) Int (bv2nat (to_rep2 x)))
(assert (forall ((x octet)) (! (uint_in_range (to_int2 x)) :pattern ((to_int2 x)))))
(declare-datatypes () ((map__ref1 (mk_map__ref1 (map__content1 (Array Int octet))))))
(declare-fun slide1 ((Array Int octet) Int Int) (Array Int octet))
(assert (forall ((a (Array Int octet))) (forall ((first2 Int)) (! (= (slide1 a first2 first2) a) :pattern ((slide1 a first2 first2))))))
(assert (forall ((a (Array Int octet))) (forall ((old_first Int)) (forall ((new_first Int)) (forall ((i Int)) (! (= (select (slide1 a old_first new_first) i) (select a (- i (- new_first old_first)))) :pattern ((select (slide1 a old_first new_first) i))))))))
(define-fun bool_eq2 ((a (Array Int octet)) (a__first Int) (a__last Int) (b (Array Int octet)) (b__first Int) (b__last Int)) Bool (ite (and (ite (<= a__first a__last) (and (<= b__first b__last) (= (- a__last a__first) (- b__last b__first))) (< b__last b__first)) (forall ((temp___idx_154 Int)) (=> (and (<= a__first temp___idx_154) (<= temp___idx_154 a__last)) (= (to_rep2 (select a temp___idx_154)) (to_rep2 (select b (+ (- b__first a__first) temp___idx_154))))))) true false))
(assert (forall ((a (Array Int octet)) (b (Array Int octet))) (forall ((a__first Int) (a__last Int) (b__first Int) (b__last Int)) (=> (= (bool_eq2 b b__first b__last a a__first a__last) true) (and (ite (<= a__first a__last) (and (<= b__first b__last) (= (- a__last a__first) (- b__last b__first))) (< b__last b__first)) (forall ((temp___idx_154 Int)) (=> (and (<= a__first temp___idx_154) (<= temp___idx_154 a__last)) (= (to_rep2 (select a temp___idx_154)) (to_rep2 (select b (+ (- b__first a__first) temp___idx_154)))))))))))
(declare-sort t1 0)
(declare-fun first2 (t1) integer)
(declare-fun last2 (t1) integer)
(declare-fun mk1 (Int Int) t1)
(assert (forall ((f Int) (l Int)) (! (=> (in_range1 f) (=> (in_range1 l) (and (= (to_rep1 (first2 (mk1 f l))) f) (= (to_rep1 (last2 (mk1 f l))) l)))) :pattern ((mk1 f l)))))
(define-fun dynamic_property1 ((range_first Int) (range_last Int) (low Int) (high Int)) Bool (and (in_range1 low) (and (in_range1 high) (=> (<= low high) (and (in_range4 low) (in_range4 high))))))
(declare-datatypes () ((us_t1 (mk___t1 (elts1 (Array Int octet)) (rt1 t1)))))
(define-fun to_array1 ((a us_t1)) (Array Int octet) (elts1 a))
(define-fun of_array1 ((a (Array Int octet)) (f Int) (l Int)) us_t1 (mk___t1 a (mk1 f l)))
(define-fun first3 ((a us_t1)) Int (to_rep1 (first2 (rt1 a))))
(define-fun last3 ((a us_t1)) Int (to_rep1 (last2 (rt1 a))))
(define-fun length1 ((a us_t1)) Int (ite (<= (first3 a) (last3 a)) (+ (- (last3 a) (first3 a)) 1) 0))
(declare-const value__size1 Int)
(declare-fun object__size1 ((Array Int octet)) Int)
(declare-const value__component__size1 Int)
(declare-fun object__component__size1 ((Array Int octet)) Int)
(declare-const value__alignment1 Int)
(declare-fun object__alignment1 ((Array Int octet)) Int)
(assert (<= 0 value__size1))
(assert (forall ((a (Array Int octet))) (<= 0 (object__size1 a))))
(assert (<= 0 value__component__size1))
(assert (forall ((a (Array Int octet))) (<= 0 (object__component__size1 a))))
(assert (<= 0 value__alignment1))
(assert (forall ((a (Array Int octet))) (<= 0 (object__alignment1 a))))
(define-fun bool_eq3 ((x us_t1) (y us_t1)) Bool (bool_eq2 (elts1 x) (to_rep1 (first2 (rt1 x))) (to_rep1 (last2 (rt1 x))) (elts1 y) (to_rep1 (first2 (rt1 y))) (to_rep1 (last2 (rt1 y)))))
(declare-fun user_eq6 (us_t1 us_t1) Bool)
(declare-const dummy6 us_t1)
(declare-datatypes () ((octet_array__ref (mk_octet_array__ref (octet_array__content us_t1)))))
(define-fun octet_array__ref___projection ((a octet_array__ref)) us_t1 (octet_array__content a))
(declare-const text us_t)
(declare-const attr__ATTRIBUTE_ADDRESS Int)
(declare-const data__first integer)
(declare-const data__last integer)
(declare-const attr__ATTRIBUTE_ADDRESS1 Int)
(declare-const attr__ATTRIBUTE_ADDRESS2 Int)
(define-fun dynamic_property2 ((first_int Int) (last_int Int) (x Int)) Bool (and (<= first_int x) (<= x last_int)))
(declare-fun attr__ATTRIBUTE_IMAGE6 (Int) us_image)
(declare-fun attr__ATTRIBUTE_VALUE__pre_check6 (us_image) Bool)
(declare-fun attr__ATTRIBUTE_VALUE6 (us_image) Int)
(declare-fun user_eq7 (integer integer) Bool)
(declare-const dummy7 integer)
(declare-datatypes () ((t51b__ref (mk_t51b__ref (t51b__content integer)))))
(define-fun t51b__ref___projection ((a t51b__ref)) integer (t51b__content a))
(declare-sort t2 0)
(declare-fun first4 (t2) integer)
(declare-fun last4 (t2) integer)
(declare-fun mk2 (Int Int) t2)
(assert (forall ((f Int) (l Int)) (! (=> (in_range1 f) (=> (in_range1 l) (and (= (to_rep1 (first4 (mk2 f l))) f) (= (to_rep1 (last4 (mk2 f l))) l)))) :pattern ((mk2 f l)))))
(define-fun dynamic_property3 ((range_first Int) (range_last Int) (low Int) (high Int)) Bool (and (in_range1 low) (and (in_range1 high) (=> (<= low high) (and (dynamic_property2 range_first range_last low) (dynamic_property2 range_first range_last high))))))
(declare-datatypes () ((us_t2 (mk___t2 (elts2 (Array Int octet)) (rt2 t2)))))
(define-fun to_array2 ((a us_t2)) (Array Int octet) (elts2 a))
(define-fun of_array2 ((a (Array Int octet)) (f Int) (l Int)) us_t2 (mk___t2 a (mk2 f l)))
(define-fun first5 ((a us_t2)) Int (to_rep1 (first4 (rt2 a))))
(define-fun last5 ((a us_t2)) Int (to_rep1 (last4 (rt2 a))))
(define-fun length2 ((a us_t2)) Int (ite (<= (first5 a) (last5 a)) (+ (- (last5 a) (first5 a)) 1) 0))
(declare-const value__size2 Int)
(declare-fun object__size2 ((Array Int octet)) Int)
(declare-const value__component__size2 Int)
(declare-fun object__component__size2 ((Array Int octet)) Int)
(declare-const value__alignment2 Int)
(declare-fun object__alignment2 ((Array Int octet)) Int)
(assert (<= 0 value__size2))
(assert (forall ((a (Array Int octet))) (<= 0 (object__size2 a))))
(assert (<= 0 value__component__size2))
(assert (forall ((a (Array Int octet))) (<= 0 (object__component__size2 a))))
(assert (<= 0 value__alignment2))
(assert (forall ((a (Array Int octet))) (<= 0 (object__alignment2 a))))
(define-fun bool_eq4 ((x us_t2) (y us_t2)) Bool (bool_eq2 (elts2 x) (to_rep1 (first4 (rt2 x))) (to_rep1 (last4 (rt2 x))) (elts2 y) (to_rep1 (first4 (rt2 y))) (to_rep1 (last4 (rt2 y)))))
(declare-fun user_eq8 (us_t2 us_t2) Bool)
(declare-const dummy8 us_t2)
(declare-datatypes () ((t52b__ref (mk_t52b__ref (t52b__content us_t2)))))
(define-fun t52b__ref___projection ((a t52b__ref)) us_t2 (t52b__content a))
(declare-const r53b Int)
(declare-const attr__ATTRIBUTE_ADDRESS3 Int)
(declare-const attr__ATTRIBUTE_ADDRESS4 Int)
(declare-fun temp_____aggregate_def_337 ((_ BitVec 8) Int Int) us_t2)
(define-fun dynamic_invariant2 ((temp___expr_46 Int) (temp___is_init_42 Bool) (temp___skip_constant_43 Bool) (temp___do_toplevel_44 Bool) (temp___do_typ_inv_45 Bool)) Bool (=> (or (= temp___is_init_42 true) (<= 1 2147483647)) (in_range2 temp___expr_46)))
(define-fun dynamic_invariant3 ((temp___expr_74 Int) (temp___is_init_70 Bool) (temp___skip_constant_71 Bool) (temp___do_toplevel_72 Bool) (temp___do_typ_inv_73 Bool)) Bool (=> (or (= temp___is_init_70 true) (<= 0 255)) (in_range3 temp___expr_74)))
(define-fun dynamic_invariant4 ((temp___expr_18 Int) (temp___is_init_14 Bool) (temp___skip_constant_15 Bool) (temp___do_toplevel_16 Bool) (temp___do_typ_inv_17 Bool)) Bool (=> (or (= temp___is_init_14 true) (<= (- 2147483648) 2147483647)) (in_range1 temp___expr_18)))
(define-fun dynamic_invariant5 ((temp___expr_251 (_ BitVec 8)) (temp___is_init_247 Bool) (temp___skip_constant_248 Bool) (temp___do_toplevel_249 Bool) (temp___do_typ_inv_250 Bool)) Bool true)
(define-fun dynamic_invariant6 ((temp___expr_258 us_t1) (temp___is_init_254 Bool) (temp___skip_constant_255 Bool) (temp___do_toplevel_256 Bool) (temp___do_typ_inv_257 Bool)) Bool (=> (not (= temp___skip_constant_255 true)) (dynamic_property1 0 2147483647 (first3 temp___expr_258) (last3 temp___expr_258))))
(assert (forall ((temp___339 (_ BitVec 8))) (forall ((temp___340 Int) (temp___341 Int)) (let ((temp___338 (temp_____aggregate_def_337 temp___339 temp___340 temp___341))) (=> (dynamic_invariant5 temp___339 true true true true) (and (=> (dynamic_property1 0 2147483647 temp___340 temp___341) (and (= (first5 temp___338) temp___340) (= (last5 temp___338) temp___341))) (forall ((temp___342 Int)) (= (to_rep2 (select (to_array2 temp___338) temp___342)) temp___339))))))))
(declare-const data (Array Int octet))
(declare-const octet_count Int)
(declare-const temp___344 (Array Int octet))
(declare-const temp___3441 t2)
(declare-const temp___345 (Array Int octet))
(declare-const temp___3451 t1)
(declare-const temp___346 (Array Int octet))
(declare-const temp___3461 t1)
(declare-const o (Array Int octet))
(declare-const o1 Int)
(declare-const o2 Int)
(declare-const o3 Int)
(declare-const o4 Int)
(declare-const o5 Int)
(declare-const result (Array Int octet))
(declare-const data1 (Array Int octet))
(declare-const result1 Int)
(declare-const octet_count1 Int)
(declare-const result2 Bool)
(declare-const result3 Int)
(declare-const octet_count2 Int)
(assert (dynamic_invariant1 text true false true true))
(assert (dynamic_property1 0 2147483647 (to_rep1 data__first) (to_rep1 data__last)))
(assert (=> (<= 0 2147483647) (in_range4 octet_count)))
(assert (= (to_rep1 (first4 (rt2 (temp_____aggregate_def_337 #x00 (to_rep1 data__first) (to_rep1 data__last))))) (to_rep1 data__first)))
(assert (= (to_rep1 (last4 (rt2 (temp_____aggregate_def_337 #x00 (to_rep1 data__first) (to_rep1 data__last))))) (to_rep1 data__last)))
(assert (= (mk___t2 temp___344 temp___3441) (temp_____aggregate_def_337 #x00 (to_rep1 data__first) (to_rep1 data__last))))
(assert (= temp___344 temp___345))
(assert (= (mk1 (to_rep1 (first4 temp___3441)) (to_rep1 (last4 temp___3441))) temp___3451))
(assert (= (ite (<= (to_rep1 (first2 temp___3451)) (to_rep1 (last2 temp___3451))) (+ (- (to_rep1 (last2 temp___3451)) (to_rep1 (first2 temp___3451))) 1) 0) (ite (<= (to_rep1 data__first) (to_rep1 data__last)) (+ (- (to_rep1 data__last) (to_rep1 data__first)) 1) 0)))
(assert (= (mk___t1 temp___346 temp___3461) (mk___t1 temp___345 temp___3451)))
(assert (= o (slide1 temp___346 (to_rep1 (first2 temp___3461)) (to_rep1 data__first))))
(assert (= result data))
(assert (= data1 o))
(assert (and (= o1 (length text)) (in_range4 (length text))))
(assert (= result1 octet_count))
(assert (= octet_count1 o1))
(assert (=> (<= (to_rep1 data__first) (to_rep1 data__last)) (= o2 (+ (- (to_rep1 data__last) (to_rep1 data__first)) 1))))
(assert (=> (not (<= (to_rep1 data__first) (to_rep1 data__last))) (= o2 0)))
(assert (and (= o3 o2) (in_range1 o2)))
(assert (= result2 (ite (< o3 octet_count1) true false)))
(assert (=> (= result2 true) (=> (<= (to_rep1 data__first) (to_rep1 data__last)) (= o4 (+ (- (to_rep1 data__last) (to_rep1 data__first)) 1)))))
(assert (=> (= result2 true) (=> (not (<= (to_rep1 data__first) (to_rep1 data__last))) (= o4 0))))
(assert (=> (= result2 true) (and (= o5 o4) (in_range4 o4))))
(assert (=> (= result2 true) (= result3 octet_count1)))
(assert (=> (= result2 true) (= octet_count2 o5)))
(assert (=> (not (= result2 true)) (= octet_count2 octet_count1)))
(assert (= octet_count2 r53b))
(assert (in_range4 r53b))
(assert (<= 1 r53b))
(assert (not (<= 0 1)))
(check-sat)
(exit)
